5519
5502
5423
5481
5538
5443
5497
5510
5530
5466
5488
5465
5484
5415
5519
5532
5485
5463
5550
5590
5448
5486
5312
5423
5569
5471
5484
5514
5528
5524
5469
5516
5486
5559
5452
5518
5521
5575
5512
5505
5520
5551
5549
5475
5468
5580
5477
5542
5503
5553
5533
5550
5480
5514
5544
5532
5591
5432
5498
5561
5506
5578
5615
5621
5514
5518
5554
5542
5511
5550
5519
5553
5517
5466
5592
5553
5501
5561
5527
5557
5546
5486
5492
5495
5580
5542
5485
5538
5479
5519
5483
5544
5486
5522
5558
5559
5610
5540
5599
5623
